32      4       
13      14      14      14      
0       0       0       0       0       4       2       3       4       5       
4       9       0       0       1       1       9       
9       8       0       6       0       1       16      
10      0       1       0       3       1       6       
4       0       1       0       0       1       8       
8       0       8       0       0       2       7       22      
5       0       10      4       10      1       10      
3       10      6       0       0       1       14      
6       0       0       9       0       1       12      
2       0       5       5       0       1       11      
9       3       8       0       7       1       24      
1       0       8       0       0       1       13      
7       0       4       0       8       1       15      
3       2       0       0       1       1       27      
8       10      0       5       0       1       17      
1       1       1       9       0       1       19      
1       0       1       7       0       1       18      
9       0       0       0       2       1       20      
6       9       3       6       1       1       23      
4       0       4       0       2       1       21      
7       0       8       0       0       1       22      
8       0       0       10      0       1       29      
10      0       7       7       7       1       25      
2       0       0       8       7       1       28      
6       0       4       10      1       1       26      
7       2       10      0       0       1       31      
10      0       0       0       4       1       30      
8       5       0       0       0       1       32      
2       8       0       0       0       1       32      
9       9       8       9       9       1       32      
3       9       0       4       3       1       32      
0       0       0       0       0       0       
